% Escenario 10:
% - 4 plantas
% - 4 clientes
% - 5 días
% Demandas altas y umbrales variados.
% Se espera que sea el caso más exigente para el solver.

np = 4;
nc = 4;
nd = 5;

nombrePlanta = ["Nuclear", "Hidroelectrica", "Termica1", "Termica2"];
nombreCliente = ["ClienteA", "ClienteB", "ClienteC", "ClienteD"];

% Costos de producción
costo = [50.0, 20.0, 45.0, 48.0];

% Capacidades
cap = [1200, 500, 400, 400];

% Pagos por MW
pago = [110.0, 120.0, 95.0, 100.0];

% Demanda para 5 días
dem = array2d(1..nc, 1..nd, [
  300, 400, 350, 420, 500,  % A
  250, 280, 300, 360, 400,  % B
  150, 150, 200, 250, 300,  % C
  100, 150, 180, 200, 200   % D
]);

% Porcentaje mínimo
G = 0.60;

% Umbral para régimen alto
umbralAlto = [0.85, 0.8, 0.8, 0.8];

% Máx. días consecutivos alto
maxDiasAlto = [2, 2, 1, 1];
